NAME : tsp225.4509.tour
COMMENT : Cost = 1507_4509
COMMENT : Found by LKH [Keld Helsgaun] Thu Nov 16 14:49:37 2017
TYPE : TOUR
DIMENSION : 227
TOUR_SECTION
1
18
19
203
20
21
22
17
16
15
14
13
23
24
208
25
34
33
35
29
30
202
206
217
219
216
76
74
75
98
99
100
101
102
103
104
220
105
106
107
108
109
110
111
112
113
114
115
223
116
60
61
62
63
64
65
66
67
68
69
71
73
72
70
54
53
52
55
56
57
58
59
2
207
49
51
50
44
43
6
3
226
8
9
10
11
12
37
36
26
204
28
79
80
81
221
82
83
84
85
86
131
132
215
134
135
183
136
137
138
139
140
141
142
201
159
160
161
162
163
158
213
164
165
128
129
222
130
211
210
87
88
89
90
91
92
93
94
209
95
96
97
78
77
31
32
38
39
40
41
42
7
5
227
4
46
45
48
224
199
133
190
225
47
117
118
119
120
175
121
122
123
124
125
126
127
166
167
151
152
153
154
155
156
157
144
143
145
146
147
148
149
150
214
212
168
169
170
171
172
173
174
176
177
178
179
180
181
182
184
185
186
187
188
27
189
205
191
192
196
193
218
194
195
197
198
200
-1
EOF
